Route #1: 52 13 54 19 59 14
Route #2: 53 11 38 10 58
Route #3: 26 7 35 8 46 34
Route #4: 4 27 45 29 48 30
Route #5: 57 15 5 37 20 60 36 47
Route #6: 21 61 64 22 28 62
Route #7: 51 16 63 33 2 6
Route #8: 1 43 42 41 56 23 49 24
Route #9: 12 40 9 44 3 17
Route #10: 39 31 25 55 18 50 32
Cost 828